0	444	32	0	200
1	266	49	0	200
2	422	16	0	200
3	417	415	0	200
4	375	69	0	200
5	226	208	0	200
6	155	89	0	200
7	340	203	0	200
8	212	416	0	200
9	489	40	0	200
10	387	432	0	200
11	117	356	0	200
12	378	260	0	200
13	369	116	0	200
14	185	470	0	200
15	481	228	0	200
16	51	301	0	200
17	127	293	0	200
18	79	367	0	200
19	76	59	0	200
20	185	352	0	200
21	474	6	0	200
22	455	310	0	200
23	209	83	0	200
24	146	7	0	200
